(set-logic HORN)
(declare-fun state (Int Int (Array Int Int) Int Int (Array Int Int) Int Int Int Bool Bool Int Int Int Int) Bool)
(assert (forall ((|main@%_4_0_3| Int) (|.y.12| Int) (|main@%shadow.mem.0_0_3| (Array Int Int)) (|main@%_5_0_3| Int) (|.y.13| Int) (|main@%shadow.mem1.0_0_3| (Array Int Int)) (|main@%i.1.i_0_1| Int) (|main@%j.1.i_0_1| Int) (|main@%_2_0_3| Int) (|.loc.14| Bool) (|.loc.15| Bool) (|main@%_21_0_0| Int) (|main@%_20_0_0| Int) (|main@%_19_0_0| Int) (|main@%_23_0_0| Int) (|.loc.25| Bool) (|.y.24| Int) (|.y.23| Int) (|.y.22| Int) (|.y.16| Int) (|.y.18| (Array Int Int)) (|.y.19| Int) (|.y.21| (Array Int Int)) (|.loc.26| Bool) (|.y.20| Int) (|.y.17| Int) (|.xtv.1| Int) (|.xtv.2| Int) (|.xtv.3| Int) (|.xtv.4| Int)) (=> (and (not .loc.14) (not .loc.15)) (state |main@%_4_0_3| |.y.12| |main@%shadow.mem.0_0_3| |main@%_5_0_3| |.y.13| |main@%shadow.mem1.0_0_3| |main@%i.1.i_0_1| |main@%j.1.i_0_1| |main@%_2_0_3| |.loc.14| |.loc.15| |main@%_21_0_0| |main@%_20_0_0| |main@%_19_0_0| |main@%_23_0_0|))))
(assert (forall ((|main@%_4_0_3| Int) (|.y.12| Int) (|main@%shadow.mem.0_0_3| (Array Int Int)) (|main@%_5_0_3| Int) (|.y.13| Int) (|main@%shadow.mem1.0_0_3| (Array Int Int)) (|main@%i.1.i_0_1| Int) (|main@%j.1.i_0_1| Int) (|main@%_2_0_3| Int) (|.loc.14| Bool) (|.loc.15| Bool) (|main@%_21_0_0| Int) (|main@%_20_0_0| Int) (|main@%_19_0_0| Int) (|main@%_23_0_0| Int) (|.loc.25| Bool) (|.y.24| Int) (|.y.23| Int) (|.y.22| Int) (|.y.16| Int) (|.y.18| (Array Int Int)) (|.y.19| Int) (|.y.21| (Array Int Int)) (|.loc.26| Bool) (|.y.20| Int) (|.y.17| Int) (|.xtv.1| Int) (|.xtv.2| Int) (|.xtv.3| Int) (|.xtv.4| Int)) (=> (and (state |main@%_4_0_3| |.y.12| |main@%shadow.mem.0_0_3| |main@%_5_0_3| |.y.13| |main@%shadow.mem1.0_0_3| |main@%i.1.i_0_1| |main@%j.1.i_0_1| |main@%_2_0_3| |.loc.14| |.loc.15| |main@%_21_0_0| |main@%_20_0_0| |main@%_19_0_0| |main@%_23_0_0|) (let ((.def_25 (not .loc.14))) (let ((.def_26 (not .loc.15))) (let ((.def_30 (= (select main@%shadow.mem.0_0_3 main@%_21_0_0) (select main@%shadow.mem1.0_0_3 main@%_23_0_0)))) (let ((.def_35 (<= main@%_5_0_3 0))) (let ((.def_45 (<= main@%_4_0_3 0))) (let ((.def_67 (not .def_45))) (let ((.def_71 (not .def_35))) (let ((.def_72 (and (and (or (not (<= main@%_23_0_0 0)) .def_35) (and (= (+ main@%_5_0_3 (+ main@%j.1.i_0_1 (* (- 1) main@%_23_0_0))) 0) (and (and (or (not (<= main@%_21_0_0 0)) .def_45) (and (= (+ main@%_4_0_3 (+ (* (- 1) main@%_21_0_0) main@%_20_0_0)) 0) (and (= (+ main@%_20_0_0 (* (- 1) main@%_19_0_0)) 1) (and (not (<= main@%_2_0_3 main@%i.1.i_0_1)) (= (+ (* 2 main@%j.1.i_0_1) (* (- 1) main@%_19_0_0)) 0))))) .def_67))) .def_71))) (let ((.def_84 (not .loc.25))) (let ((.def_89 (<= main@%i.1.i_0_1 .y.12))) (let ((.def_92 (= main@%_4_0_3 .y.16))) (let ((.def_95 (= main@%shadow.mem.0_0_3 .y.18))) (let ((.def_98 (= main@%_5_0_3 .y.19))) (let ((.def_101 (= main@%shadow.mem1.0_0_3 .y.21))) (let ((.def_139 (not .loc.26))) (or (or (and (or (or (and (and .def_25 (and .loc.15 (and (not .def_30) .def_72))) .loc.25) (and (= main@%i.1.i_0_1 .y.24) (and (and (and (and (and (and (= .y.23 0) (and (= .y.22 1) (and .def_26 (and .loc.14 .def_84)))) .def_89) .def_92) .def_95) .def_98) .def_101))) (and (= main@%_2_0_3 .y.24) (and (= (+ main@%j.1.i_0_1 (* (- 1) .y.23)) (- 1)) (and (= (+ main@%i.1.i_0_1 (* (- 1) .y.22)) (- 2)) (and .def_101 (and .def_98 (and .def_95 (and .def_92 (and .def_84 (and .def_25 (and .loc.15 (and .def_30 .def_72)))))))))))) .loc.26) (and (not (<= .y.22 0)) (and (not (<= .y.16 0)) (and (not (<= .y.19 0)) (and (= .y.20 0) (and (= .y.17 1) (and (and .def_26 (and .def_25 .loc.25)) .def_139))))))) (and (= main@%i.1.i_0_1 .y.22) (and (not .def_89) (and (= (+ main@%_4_0_3 (+ .y.12 (* (- 1) main@%_19_0_0))) 0) (and (or .def_45 (not (<= main@%_19_0_0 0))) (and (= (+ main@%_5_0_3 (+ .y.13 (* (- 1) main@%_20_0_0))) 0) (and (or .def_35 (not (<= main@%_20_0_0 0))) (and (= .y.18 (store main@%shadow.mem.0_0_3 main@%_19_0_0 main@%_21_0_0)) (and (= .y.21 (store main@%shadow.mem1.0_0_3 main@%_20_0_0 main@%_21_0_0)) (and (= (+ .y.13 (* (- 1) .y.20)) (- 1)) (and (= (+ .y.12 (* (- 1) .y.17)) (- 2)) (and .def_139 (and .def_98 (and .def_92 (and .def_26 (and .loc.25 (and .loc.14 (and .def_67 .def_71)))))))))))))))))))))))))))))))))) (state |.y.16| |.y.17| |.y.18| |.y.19| |.y.20| |.y.21| |.y.22| |.y.23| |.y.24| |.loc.25| |.loc.26| |.xtv.1| |.xtv.2| |.xtv.3| |.xtv.4|))))
(assert (forall ((|main@%_4_0_3| Int) (|.y.12| Int) (|main@%shadow.mem.0_0_3| (Array Int Int)) (|main@%_5_0_3| Int) (|.y.13| Int) (|main@%shadow.mem1.0_0_3| (Array Int Int)) (|main@%i.1.i_0_1| Int) (|main@%j.1.i_0_1| Int) (|main@%_2_0_3| Int) (|.loc.14| Bool) (|.loc.15| Bool) (|main@%_21_0_0| Int) (|main@%_20_0_0| Int) (|main@%_19_0_0| Int) (|main@%_23_0_0| Int) (|.loc.25| Bool) (|.y.24| Int) (|.y.23| Int) (|.y.22| Int) (|.y.16| Int) (|.y.18| (Array Int Int)) (|.y.19| Int) (|.y.21| (Array Int Int)) (|.loc.26| Bool) (|.y.20| Int) (|.y.17| Int) (|.xtv.1| Int) (|.xtv.2| Int) (|.xtv.3| Int) (|.xtv.4| Int)) (=> (state |main@%_4_0_3| |.y.12| |main@%shadow.mem.0_0_3| |main@%_5_0_3| |.y.13| |main@%shadow.mem1.0_0_3| |main@%i.1.i_0_1| |main@%j.1.i_0_1| |main@%_2_0_3| |.loc.14| |.loc.15| |main@%_21_0_0| |main@%_20_0_0| |main@%_19_0_0| |main@%_23_0_0|) (not (and .loc.14 .loc.15)))))
(check-sat)
